Maximize
 obj: - z0 - z1 - z2 - z3 - z4 - z5 - z6 - z7 - z8 - z9 - z10 - z11 - z12 - z13 - z14 - z15 - z16 - z17 - z18 - z19 - z20 - z21 - z22 - z23 - z24 + 25
Subject To
 c0: x00 + x01 + x02 + x03 = 1
 c1: x10 + x11 + x12 + x13 = 1
 c2: x20 + x21 + x22 + x23 = 1
 c3: x30 + x31 + x32 + x33 = 1
 c4: x40 + x41 + x42 + x43 = 1
 c5: x50 + x51 + x52 + x53 = 1
 c6: x60 + x61 + x62 + x63 = 1
 c7: x70 + x71 + x72 + x73 = 1
 c8: x80 + x81 + x82 + x83 = 1
 c9: x90 + x91 + x92 + x93 = 1
 c10: x100 + x101 + x102 + x103 = 1
 c11: x110 + x111 + x112 + x113 = 1
 c12: x120 + x121 + x122 + x123 = 1
 c13: x130 + x131 + x132 + x133 = 1
 c14: x140 + x141 + x142 + x143 = 1
 c15: x150 + x151 + x152 + x153 = 1
 c16: x160 + x161 + x162 + x163 = 1
 c17: x170 + x171 + x172 + x173 = 1
 c18: x180 + x181 + x182 + x183 = 1
 c19: x190 + x191 + x192 + x193 = 1
 c20: x200 + x201 + x202 + x203 = 1
 c21: x210 + x211 + x212 + x213 = 1
 c22: x220 + x221 + x222 + x223 = 1
 c23: x230 + x231 + x232 + x233 = 1
 c24: x240 + x241 + x242 + x243 = 1
 c25: x00 + x60 - z0 <= 1
 c26: x00 + x63 - z0 <= 1
 c27: x00 + x220 - z0 <= 1
 c28: x00 + x221 - z0 <= 1
 c29: x00 + x241 - z0 <= 1
 c30: x00 + x242 - z0 <= 1
 c31: x01 + x60 - z0 <= 1
 c32: x01 + x61 - z0 <= 1
 c33: x01 + x62 - z0 <= 1
 c34: x01 + x63 - z0 <= 1
 c35: x01 + x183 - z0 <= 1
 c36: x01 + x221 - z0 <= 1
 c37: x02 + x62 - z0 <= 1
 c38: x02 + x63 - z0 <= 1
 c39: x02 + x120 - z0 <= 1
 c40: x02 + x200 - z0 <= 1
 c41: x02 + x221 - z0 <= 1
 c42: x02 + x222 - z0 <= 1
 c43: x03 + x63 - z0 <= 1
 c44: x03 + x220 - z0 <= 1
 c45: x03 + x221 - z0 <= 1
 c46: x03 + x222 - z0 <= 1
 c47: x03 + x223 - z0 <= 1
 c48: x03 + x242 - z0 <= 1
 c49: x10 + x51 - z1 <= 1
 c50: x10 + x52 - z1 <= 1
 c51: x10 + x100 - z1 <= 1
 c52: x10 + x123 - z1 <= 1
 c53: x10 + x140 - z1 <= 1
 c54: x10 + x203 - z1 <= 1
 c55: x10 + x230 - z1 <= 1
 c56: x11 + x100 - z1 <= 1
 c57: x11 + x101 - z1 <= 1
 c58: x11 + x122 - z1 <= 1
 c59: x11 + x123 - z1 <= 1
 c60: x11 + x140 - z1 <= 1
 c61: x11 + x141 - z1 <= 1
 c62: x11 + x202 - z1 <= 1
 c63: x11 + x203 - z1 <= 1
 c64: x11 + x230 - z1 <= 1
 c65: x11 + x231 - z1 <= 1
 c66: x12 + x71 - z1 <= 1
 c67: x12 + x100 - z1 <= 1
 c68: x12 + x101 - z1 <= 1
 c69: x12 + x102 - z1 <= 1
 c70: x12 + x103 - z1 <= 1
 c71: x12 + x140 - z1 <= 1
 c72: x12 + x141 - z1 <= 1
 c73: x12 + x142 - z1 <= 1
 c74: x12 + x143 - z1 <= 1
 c75: x12 + x230 - z1 <= 1
 c76: x12 + x231 - z1 <= 1
 c77: x12 + x232 - z1 <= 1
 c78: x12 + x233 - z1 <= 1
 c79: x13 + x21 - z1 <= 1
 c80: x13 + x52 - z1 <= 1
 c81: x13 + x70 - z1 <= 1
 c82: x13 + x71 - z1 <= 1
 c83: x13 + x100 - z1 <= 1
 c84: x13 + x103 - z1 <= 1
 c85: x13 + x140 - z1 <= 1
 c86: x13 + x143 - z1 <= 1
 c87: x13 + x211 - z1 <= 1
 c88: x13 + x230 - z1 <= 1
 c89: x13 + x233 - z1 <= 1
 c90: x20 + x53 - z2 <= 1
 c91: x20 + x80 - z2 <= 1
 c92: x20 + x81 - z2 <= 1
 c93: x20 + x210 - z2 <= 1
 c94: x21 + x13 - z2 <= 1
 c95: x21 + x52 - z2 <= 1
 c96: x21 + x53 - z2 <= 1
 c97: x21 + x70 - z2 <= 1
 c98: x21 + x81 - z2 <= 1
 c99: x21 + x90 - z2 <= 1
 c100: x21 + x210 - z2 <= 1
 c101: x21 + x211 - z2 <= 1
 c102: x22 + x70 - z2 <= 1
 c103: x22 + x73 - z2 <= 1
 c104: x22 + x81 - z2 <= 1
 c105: x22 + x82 - z2 <= 1
 c106: x22 + x90 - z2 <= 1
 c107: x22 + x93 - z2 <= 1
 c108: x22 + x210 - z2 <= 1
 c109: x22 + x211 - z2 <= 1
 c110: x22 + x212 - z2 <= 1
 c111: x22 + x213 - z2 <= 1
 c112: x23 + x80 - z2 <= 1
 c113: x23 + x81 - z2 <= 1
 c114: x23 + x82 - z2 <= 1
 c115: x23 + x83 - z2 <= 1
 c116: x23 + x210 - z2 <= 1
 c117: x23 + x213 - z2 <= 1
 c118: x30 + x40 - z3 <= 1
 c119: x30 + x43 - z3 <= 1
 c120: x30 + x130 - z3 <= 1
 c121: x30 + x131 - z3 <= 1
 c122: x30 + x160 - z3 <= 1
 c123: x31 + x40 - z3 <= 1
 c124: x31 + x41 - z3 <= 1
 c125: x31 + x42 - z3 <= 1
 c126: x31 + x43 - z3 <= 1
 c127: x31 + x131 - z3 <= 1
 c128: x31 + x160 - z3 <= 1
 c129: x31 + x161 - z3 <= 1
 c130: x31 + x173 - z3 <= 1
 c131: x32 + x42 - z3 <= 1
 c132: x32 + x43 - z3 <= 1
 c133: x32 + x131 - z3 <= 1
 c134: x32 + x132 - z3 <= 1
 c135: x32 + x160 - z3 <= 1
 c136: x32 + x161 - z3 <= 1
 c137: x32 + x162 - z3 <= 1
 c138: x32 + x163 - z3 <= 1
 c139: x32 + x180 - z3 <= 1
 c140: x32 + x181 - z3 <= 1
 c141: x33 + x43 - z3 <= 1
 c142: x33 + x130 - z3 <= 1
 c143: x33 + x131 - z3 <= 1
 c144: x33 + x132 - z3 <= 1
 c145: x33 + x133 - z3 <= 1
 c146: x33 + x160 - z3 <= 1
 c147: x33 + x163 - z3 <= 1
 c148: x33 + x180 - z3 <= 1
 c149: x40 + x30 - z4 <= 1
 c150: x40 + x31 - z4 <= 1
 c151: x40 + x131 - z4 <= 1
 c152: x40 + x160 - z4 <= 1
 c153: x40 + x161 - z4 <= 1
 c154: x40 + x173 - z4 <= 1
 c155: x41 + x31 - z4 <= 1
 c156: x41 + x161 - z4 <= 1
 c157: x41 + x172 - z4 <= 1
 c158: x41 + x173 - z4 <= 1
 c159: x42 + x31 - z4 <= 1
 c160: x42 + x32 - z4 <= 1
 c161: x42 + x161 - z4 <= 1
 c162: x42 + x162 - z4 <= 1
 c163: x42 + x181 - z4 <= 1
 c164: x43 + x30 - z4 <= 1
 c165: x43 + x31 - z4 <= 1
 c166: x43 + x32 - z4 <= 1
 c167: x43 + x33 - z4 <= 1
 c168: x43 + x131 - z4 <= 1
 c169: x43 + x132 - z4 <= 1
 c170: x43 + x160 - z4 <= 1
 c171: x43 + x161 - z4 <= 1
 c172: x43 + x162 - z4 <= 1
 c173: x43 + x163 - z4 <= 1
 c174: x43 + x180 - z4 <= 1
 c175: x43 + x181 - z4 <= 1
 c176: x51 + x10 - z5 <= 1
 c177: x51 + x100 - z5 <= 1
 c178: x51 + x123 - z5 <= 1
 c179: x51 + x140 - z5 <= 1
 c180: x51 + x200 - z5 <= 1
 c181: x51 + x203 - z5 <= 1
 c182: x51 + x230 - z5 <= 1
 c183: x52 + x10 - z5 <= 1
 c184: x52 + x13 - z5 <= 1
 c185: x52 + x21 - z5 <= 1
 c186: x52 + x70 - z5 <= 1
 c187: x52 + x71 - z5 <= 1
 c188: x52 + x100 - z5 <= 1
 c189: x52 + x103 - z5 <= 1
 c190: x52 + x140 - z5 <= 1
 c191: x52 + x143 - z5 <= 1
 c192: x52 + x203 - z5 <= 1
 c193: x52 + x230 - z5 <= 1
 c194: x52 + x233 - z5 <= 1
 c195: x53 + x20 - z5 <= 1
 c196: x53 + x21 - z5 <= 1
 c197: x53 + x70 - z5 <= 1
 c198: x60 + x00 - z6 <= 1
 c199: x60 + x01 - z6 <= 1
 c200: x60 + x220 - z6 <= 1
 c201: x60 + x221 - z6 <= 1
 c202: x60 + x241 - z6 <= 1
 c203: x60 + x242 - z6 <= 1
 c204: x61 + x01 - z6 <= 1
 c205: x61 + x183 - z6 <= 1
 c206: x61 + x221 - z6 <= 1
 c207: x62 + x01 - z6 <= 1
 c208: x62 + x02 - z6 <= 1
 c209: x62 + x120 - z6 <= 1
 c210: x62 + x200 - z6 <= 1
 c211: x62 + x221 - z6 <= 1
 c212: x62 + x222 - z6 <= 1
 c213: x63 + x00 - z6 <= 1
 c214: x63 + x01 - z6 <= 1
 c215: x63 + x02 - z6 <= 1
 c216: x63 + x03 - z6 <= 1
 c217: x63 + x220 - z6 <= 1
 c218: x63 + x221 - z6 <= 1
 c219: x63 + x222 - z6 <= 1
 c220: x63 + x223 - z6 <= 1
 c221: x63 + x242 - z6 <= 1
 c222: x70 + x13 - z7 <= 1
 c223: x70 + x21 - z7 <= 1
 c224: x70 + x22 - z7 <= 1
 c225: x70 + x52 - z7 <= 1
 c226: x70 + x53 - z7 <= 1
 c227: x70 + x81 - z7 <= 1
 c228: x70 + x90 - z7 <= 1
 c229: x70 + x143 - z7 <= 1
 c230: x70 + x210 - z7 <= 1
 c231: x70 + x211 - z7 <= 1
 c232: x71 + x12 - z7 <= 1
 c233: x71 + x13 - z7 <= 1
 c234: x71 + x52 - z7 <= 1
 c235: x71 + x90 - z7 <= 1
 c236: x71 + x91 - z7 <= 1
 c237: x71 + x103 - z7 <= 1
 c238: x71 + x142 - z7 <= 1
 c239: x71 + x143 - z7 <= 1
 c240: x71 + x211 - z7 <= 1
 c241: x71 + x233 - z7 <= 1
 c242: x72 + x90 - z7 <= 1
 c243: x72 + x91 - z7 <= 1
 c244: x72 + x92 - z7 <= 1
 c245: x72 + x93 - z7 <= 1
 c246: x72 + x211 - z7 <= 1
 c247: x72 + x212 - z7 <= 1
 c248: x73 + x22 - z7 <= 1
 c249: x73 + x81 - z7 <= 1
 c250: x73 + x82 - z7 <= 1
 c251: x73 + x90 - z7 <= 1
 c252: x73 + x93 - z7 <= 1
 c253: x73 + x210 - z7 <= 1
 c254: x73 + x211 - z7 <= 1
 c255: x73 + x212 - z7 <= 1
 c256: x73 + x213 - z7 <= 1
 c257: x80 + x20 - z8 <= 1
 c258: x80 + x23 - z8 <= 1
 c259: x80 + x210 - z8 <= 1
 c260: x80 + x213 - z8 <= 1
 c261: x81 + x20 - z8 <= 1
 c262: x81 + x21 - z8 <= 1
 c263: x81 + x22 - z8 <= 1
 c264: x81 + x23 - z8 <= 1
 c265: x81 + x70 - z8 <= 1
 c266: x81 + x73 - z8 <= 1
 c267: x81 + x90 - z8 <= 1
 c268: x81 + x210 - z8 <= 1
 c269: x81 + x211 - z8 <= 1
 c270: x81 + x212 - z8 <= 1
 c271: x81 + x213 - z8 <= 1
 c272: x82 + x22 - z8 <= 1
 c273: x82 + x23 - z8 <= 1
 c274: x82 + x73 - z8 <= 1
 c275: x82 + x90 - z8 <= 1
 c276: x82 + x93 - z8 <= 1
 c277: x82 + x212 - z8 <= 1
 c278: x82 + x213 - z8 <= 1
 c279: x83 + x23 - z8 <= 1
 c280: x83 + x213 - z8 <= 1
 c281: x90 + x21 - z9 <= 1
 c282: x90 + x22 - z9 <= 1
 c283: x90 + x70 - z9 <= 1
 c284: x90 + x71 - z9 <= 1
 c285: x90 + x72 - z9 <= 1
 c286: x90 + x73 - z9 <= 1
 c287: x90 + x81 - z9 <= 1
 c288: x90 + x82 - z9 <= 1
 c289: x90 + x210 - z9 <= 1
 c290: x90 + x211 - z9 <= 1
 c291: x90 + x212 - z9 <= 1
 c292: x90 + x213 - z9 <= 1
 c293: x91 + x71 - z9 <= 1
 c294: x91 + x72 - z9 <= 1
 c295: x91 + x211 - z9 <= 1
 c296: x91 + x212 - z9 <= 1
 c297: x91 + x233 - z9 <= 1
 c298: x92 + x72 - z9 <= 1
 c299: x92 + x212 - z9 <= 1
 c300: x93 + x22 - z9 <= 1
 c301: x93 + x72 - z9 <= 1
 c302: x93 + x73 - z9 <= 1
 c303: x93 + x82 - z9 <= 1
 c304: x93 + x212 - z9 <= 1
 c305: x93 + x213 - z9 <= 1
 c306: x100 + x10 - z10 <= 1
 c307: x100 + x11 - z10 <= 1
 c308: x100 + x12 - z10 <= 1
 c309: x100 + x13 - z10 <= 1
 c310: x100 + x51 - z10 <= 1
 c311: x100 + x52 - z10 <= 1
 c312: x100 + x122 - z10 <= 1
 c313: x100 + x123 - z10 <= 1
 c314: x100 + x140 - z10 <= 1
 c315: x100 + x141 - z10 <= 1
 c316: x100 + x202 - z10 <= 1
 c317: x100 + x203 - z10 <= 1
 c318: x100 + x230 - z10 <= 1
 c319: x101 + x11 - z10 <= 1
 c320: x101 + x12 - z10 <= 1
 c321: x101 + x122 - z10 <= 1
 c322: x101 + x141 - z10 <= 1
 c323: x101 + x202 - z10 <= 1
 c324: x101 + x230 - z10 <= 1
 c325: x101 + x231 - z10 <= 1
 c326: x102 + x12 - z10 <= 1
 c327: x102 + x141 - z10 <= 1
 c328: x102 + x142 - z10 <= 1
 c329: x102 + x230 - z10 <= 1
 c330: x102 + x231 - z10 <= 1
 c331: x102 + x232 - z10 <= 1
 c332: x102 + x233 - z10 <= 1
 c333: x103 + x12 - z10 <= 1
 c334: x103 + x13 - z10 <= 1
 c335: x103 + x52 - z10 <= 1
 c336: x103 + x71 - z10 <= 1
 c337: x103 + x140 - z10 <= 1
 c338: x103 + x141 - z10 <= 1
 c339: x103 + x142 - z10 <= 1
 c340: x103 + x143 - z10 <= 1
 c341: x103 + x211 - z10 <= 1
 c342: x103 + x230 - z10 <= 1
 c343: x103 + x233 - z10 <= 1
 c344: x110 + x151 - z11 <= 1
 c345: x110 + x152 - z11 <= 1
 c346: x110 + x190 - z11 <= 1
 c347: x110 + x191 - z11 <= 1
 c348: x111 + x170 - z11 <= 1
 c349: x111 + x191 - z11 <= 1
 c350: x112 + x170 - z11 <= 1
 c351: x112 + x173 - z11 <= 1
 c352: x112 + x191 - z11 <= 1
 c353: x112 + x192 - z11 <= 1
 c354: x113 + x152 - z11 <= 1
 c355: x113 + x190 - z11 <= 1
 c356: x113 + x191 - z11 <= 1
 c357: x113 + x192 - z11 <= 1
 c358: x113 + x193 - z11 <= 1
 c359: x120 + x02 - z12 <= 1
 c360: x120 + x62 - z12 <= 1
 c361: x120 + x200 - z12 <= 1
 c362: x121 + x200 - z12 <= 1
 c363: x121 + x201 - z12 <= 1
 c364: x122 + x11 - z12 <= 1
 c365: x122 + x100 - z12 <= 1
 c366: x122 + x101 - z12 <= 1
 c367: x122 + x140 - z12 <= 1
 c368: x122 + x141 - z12 <= 1
 c369: x122 + x200 - z12 <= 1
 c370: x122 + x201 - z12 <= 1
 c371: x122 + x202 - z12 <= 1
 c372: x122 + x203 - z12 <= 1
 c373: x122 + x230 - z12 <= 1
 c374: x122 + x231 - z12 <= 1
 c375: x123 + x10 - z12 <= 1
 c376: x123 + x11 - z12 <= 1
 c377: x123 + x51 - z12 <= 1
 c378: x123 + x100 - z12 <= 1
 c379: x123 + x140 - z12 <= 1
 c380: x123 + x200 - z12 <= 1
 c381: x123 + x203 - z12 <= 1
 c382: x123 + x230 - z12 <= 1
 c383: x130 + x30 - z13 <= 1
 c384: x130 + x33 - z13 <= 1
 c385: x131 + x30 - z13 <= 1
 c386: x131 + x31 - z13 <= 1
 c387: x131 + x32 - z13 <= 1
 c388: x131 + x33 - z13 <= 1
 c389: x131 + x40 - z13 <= 1
 c390: x131 + x43 - z13 <= 1
 c391: x131 + x160 - z13 <= 1
 c392: x132 + x32 - z13 <= 1
 c393: x132 + x33 - z13 <= 1
 c394: x132 + x43 - z13 <= 1
 c395: x132 + x160 - z13 <= 1
 c396: x132 + x163 - z13 <= 1
 c397: x132 + x180 - z13 <= 1
 c398: x133 + x33 - z13 <= 1
 c399: x140 + x10 - z14 <= 1
 c400: x140 + x11 - z14 <= 1
 c401: x140 + x12 - z14 <= 1
 c402: x140 + x13 - z14 <= 1
 c403: x140 + x51 - z14 <= 1
 c404: x140 + x52 - z14 <= 1
 c405: x140 + x100 - z14 <= 1
 c406: x140 + x103 - z14 <= 1
 c407: x140 + x122 - z14 <= 1
 c408: x140 + x123 - z14 <= 1
 c409: x140 + x202 - z14 <= 1
 c410: x140 + x203 - z14 <= 1
 c411: x140 + x230 - z14 <= 1
 c412: x141 + x11 - z14 <= 1
 c413: x141 + x12 - z14 <= 1
 c414: x141 + x100 - z14 <= 1
 c415: x141 + x101 - z14 <= 1
 c416: x141 + x102 - z14 <= 1
 c417: x141 + x103 - z14 <= 1
 c418: x141 + x122 - z14 <= 1
 c419: x141 + x202 - z14 <= 1
 c420: x141 + x230 - z14 <= 1
 c421: x141 + x231 - z14 <= 1
 c422: x142 + x12 - z14 <= 1
 c423: x142 + x71 - z14 <= 1
 c424: x142 + x102 - z14 <= 1
 c425: x142 + x103 - z14 <= 1
 c426: x142 + x230 - z14 <= 1
 c427: x142 + x231 - z14 <= 1
 c428: x142 + x232 - z14 <= 1
 c429: x142 + x233 - z14 <= 1
 c430: x143 + x12 - z14 <= 1
 c431: x143 + x13 - z14 <= 1
 c432: x143 + x52 - z14 <= 1
 c433: x143 + x70 - z14 <= 1
 c434: x143 + x71 - z14 <= 1
 c435: x143 + x103 - z14 <= 1
 c436: x143 + x211 - z14 <= 1
 c437: x143 + x230 - z14 <= 1
 c438: x143 + x233 - z14 <= 1
 c439: x151 + x110 - z15 <= 1
 c440: x152 + x110 - z15 <= 1
 c441: x152 + x113 - z15 <= 1
 c442: x152 + x190 - z15 <= 1
 c443: x152 + x191 - z15 <= 1
 c444: x153 + x190 - z15 <= 1
 c445: x160 + x30 - z16 <= 1
 c446: x160 + x31 - z16 <= 1
 c447: x160 + x32 - z16 <= 1
 c448: x160 + x33 - z16 <= 1
 c449: x160 + x40 - z16 <= 1
 c450: x160 + x43 - z16 <= 1
 c451: x160 + x131 - z16 <= 1
 c452: x160 + x132 - z16 <= 1
 c453: x161 + x31 - z16 <= 1
 c454: x161 + x32 - z16 <= 1
 c455: x161 + x40 - z16 <= 1
 c456: x161 + x41 - z16 <= 1
 c457: x161 + x42 - z16 <= 1
 c458: x161 + x43 - z16 <= 1
 c459: x162 + x32 - z16 <= 1
 c460: x162 + x42 - z16 <= 1
 c461: x162 + x43 - z16 <= 1
 c462: x162 + x180 - z16 <= 1
 c463: x162 + x181 - z16 <= 1
 c464: x163 + x32 - z16 <= 1
 c465: x163 + x33 - z16 <= 1
 c466: x163 + x43 - z16 <= 1
 c467: x163 + x132 - z16 <= 1
 c468: x163 + x180 - z16 <= 1
 c469: x170 + x111 - z17 <= 1
 c470: x170 + x112 - z17 <= 1
 c471: x172 + x41 - z17 <= 1
 c472: x173 + x31 - z17 <= 1
 c473: x173 + x40 - z17 <= 1
 c474: x173 + x41 - z17 <= 1
 c475: x173 + x112 - z17 <= 1
 c476: x180 + x32 - z18 <= 1
 c477: x180 + x33 - z18 <= 1
 c478: x180 + x43 - z18 <= 1
 c479: x180 + x132 - z18 <= 1
 c480: x180 + x162 - z18 <= 1
 c481: x180 + x163 - z18 <= 1
 c482: x181 + x32 - z18 <= 1
 c483: x181 + x42 - z18 <= 1
 c484: x181 + x43 - z18 <= 1
 c485: x181 + x162 - z18 <= 1
 c486: x183 + x01 - z18 <= 1
 c487: x183 + x61 - z18 <= 1
 c488: x183 + x221 - z18 <= 1
 c489: x190 + x110 - z19 <= 1
 c490: x190 + x113 - z19 <= 1
 c491: x190 + x152 - z19 <= 1
 c492: x190 + x153 - z19 <= 1
 c493: x191 + x110 - z19 <= 1
 c494: x191 + x111 - z19 <= 1
 c495: x191 + x112 - z19 <= 1
 c496: x191 + x113 - z19 <= 1
 c497: x191 + x152 - z19 <= 1
 c498: x192 + x112 - z19 <= 1
 c499: x192 + x113 - z19 <= 1
 c500: x193 + x113 - z19 <= 1
 c501: x200 + x02 - z20 <= 1
 c502: x200 + x51 - z20 <= 1
 c503: x200 + x62 - z20 <= 1
 c504: x200 + x120 - z20 <= 1
 c505: x200 + x121 - z20 <= 1
 c506: x200 + x122 - z20 <= 1
 c507: x200 + x123 - z20 <= 1
 c508: x201 + x121 - z20 <= 1
 c509: x201 + x122 - z20 <= 1
 c510: x202 + x11 - z20 <= 1
 c511: x202 + x100 - z20 <= 1
 c512: x202 + x101 - z20 <= 1
 c513: x202 + x122 - z20 <= 1
 c514: x202 + x140 - z20 <= 1
 c515: x202 + x141 - z20 <= 1
 c516: x202 + x230 - z20 <= 1
 c517: x202 + x231 - z20 <= 1
 c518: x203 + x10 - z20 <= 1
 c519: x203 + x11 - z20 <= 1
 c520: x203 + x51 - z20 <= 1
 c521: x203 + x52 - z20 <= 1
 c522: x203 + x100 - z20 <= 1
 c523: x203 + x122 - z20 <= 1
 c524: x203 + x123 - z20 <= 1
 c525: x203 + x140 - z20 <= 1
 c526: x203 + x230 - z20 <= 1
 c527: x210 + x20 - z21 <= 1
 c528: x210 + x21 - z21 <= 1
 c529: x210 + x22 - z21 <= 1
 c530: x210 + x23 - z21 <= 1
 c531: x210 + x70 - z21 <= 1
 c532: x210 + x73 - z21 <= 1
 c533: x210 + x80 - z21 <= 1
 c534: x210 + x81 - z21 <= 1
 c535: x210 + x90 - z21 <= 1
 c536: x211 + x13 - z21 <= 1
 c537: x211 + x21 - z21 <= 1
 c538: x211 + x22 - z21 <= 1
 c539: x211 + x70 - z21 <= 1
 c540: x211 + x71 - z21 <= 1
 c541: x211 + x72 - z21 <= 1
 c542: x211 + x73 - z21 <= 1
 c543: x211 + x81 - z21 <= 1
 c544: x211 + x90 - z21 <= 1
 c545: x211 + x91 - z21 <= 1
 c546: x211 + x103 - z21 <= 1
 c547: x211 + x143 - z21 <= 1
 c548: x211 + x233 - z21 <= 1
 c549: x212 + x22 - z21 <= 1
 c550: x212 + x72 - z21 <= 1
 c551: x212 + x73 - z21 <= 1
 c552: x212 + x81 - z21 <= 1
 c553: x212 + x82 - z21 <= 1
 c554: x212 + x90 - z21 <= 1
 c555: x212 + x91 - z21 <= 1
 c556: x212 + x92 - z21 <= 1
 c557: x212 + x93 - z21 <= 1
 c558: x213 + x22 - z21 <= 1
 c559: x213 + x23 - z21 <= 1
 c560: x213 + x73 - z21 <= 1
 c561: x213 + x80 - z21 <= 1
 c562: x213 + x81 - z21 <= 1
 c563: x213 + x82 - z21 <= 1
 c564: x213 + x83 - z21 <= 1
 c565: x213 + x90 - z21 <= 1
 c566: x213 + x93 - z21 <= 1
 c567: x220 + x00 - z22 <= 1
 c568: x220 + x03 - z22 <= 1
 c569: x220 + x60 - z22 <= 1
 c570: x220 + x63 - z22 <= 1
 c571: x220 + x240 - z22 <= 1
 c572: x220 + x241 - z22 <= 1
 c573: x220 + x242 - z22 <= 1
 c574: x220 + x243 - z22 <= 1
 c575: x221 + x00 - z22 <= 1
 c576: x221 + x01 - z22 <= 1
 c577: x221 + x02 - z22 <= 1
 c578: x221 + x03 - z22 <= 1
 c579: x221 + x60 - z22 <= 1
 c580: x221 + x61 - z22 <= 1
 c581: x221 + x62 - z22 <= 1
 c582: x221 + x63 - z22 <= 1
 c583: x221 + x183 - z22 <= 1
 c584: x221 + x241 - z22 <= 1
 c585: x221 + x242 - z22 <= 1
 c586: x222 + x02 - z22 <= 1
 c587: x222 + x03 - z22 <= 1
 c588: x222 + x62 - z22 <= 1
 c589: x222 + x63 - z22 <= 1
 c590: x222 + x242 - z22 <= 1
 c591: x223 + x03 - z22 <= 1
 c592: x223 + x63 - z22 <= 1
 c593: x223 + x242 - z22 <= 1
 c594: x223 + x243 - z22 <= 1
 c595: x230 + x10 - z23 <= 1
 c596: x230 + x11 - z23 <= 1
 c597: x230 + x12 - z23 <= 1
 c598: x230 + x13 - z23 <= 1
 c599: x230 + x51 - z23 <= 1
 c600: x230 + x52 - z23 <= 1
 c601: x230 + x100 - z23 <= 1
 c602: x230 + x101 - z23 <= 1
 c603: x230 + x102 - z23 <= 1
 c604: x230 + x103 - z23 <= 1
 c605: x230 + x122 - z23 <= 1
 c606: x230 + x123 - z23 <= 1
 c607: x230 + x140 - z23 <= 1
 c608: x230 + x141 - z23 <= 1
 c609: x230 + x142 - z23 <= 1
 c610: x230 + x143 - z23 <= 1
 c611: x230 + x202 - z23 <= 1
 c612: x230 + x203 - z23 <= 1
 c613: x231 + x11 - z23 <= 1
 c614: x231 + x12 - z23 <= 1
 c615: x231 + x101 - z23 <= 1
 c616: x231 + x102 - z23 <= 1
 c617: x231 + x122 - z23 <= 1
 c618: x231 + x141 - z23 <= 1
 c619: x231 + x142 - z23 <= 1
 c620: x231 + x202 - z23 <= 1
 c621: x232 + x12 - z23 <= 1
 c622: x232 + x102 - z23 <= 1
 c623: x232 + x142 - z23 <= 1
 c624: x233 + x12 - z23 <= 1
 c625: x233 + x13 - z23 <= 1
 c626: x233 + x52 - z23 <= 1
 c627: x233 + x71 - z23 <= 1
 c628: x233 + x91 - z23 <= 1
 c629: x233 + x102 - z23 <= 1
 c630: x233 + x103 - z23 <= 1
 c631: x233 + x142 - z23 <= 1
 c632: x233 + x143 - z23 <= 1
 c633: x233 + x211 - z23 <= 1
 c634: x240 + x220 - z24 <= 1
 c635: x241 + x00 - z24 <= 1
 c636: x241 + x60 - z24 <= 1
 c637: x241 + x220 - z24 <= 1
 c638: x241 + x221 - z24 <= 1
 c639: x242 + x00 - z24 <= 1
 c640: x242 + x03 - z24 <= 1
 c641: x242 + x60 - z24 <= 1
 c642: x242 + x63 - z24 <= 1
 c643: x242 + x220 - z24 <= 1
 c644: x242 + x221 - z24 <= 1
 c645: x242 + x222 - z24 <= 1
 c646: x242 + x223 - z24 <= 1
 c647: x243 + x220 - z24 <= 1
 c648: x243 + x223 - z24 <= 1
Binary
 x00
 x01
 x02
 x03
 z0
 x10
 x11
 x12
 x13
 z1
 x20
 x21
 x22
 x23
 z2
 x30
 x31
 x32
 x33
 z3
 x40
 x41
 x42
 x43
 z4
 x50
 x51
 x52
 x53
 z5
 x60
 x61
 x62
 x63
 z6
 x70
 x71
 x72
 x73
 z7
 x80
 x81
 x82
 x83
 z8
 x90
 x91
 x92
 x93
 z9
 x100
 x101
 x102
 x103
 z10
 x110
 x111
 x112
 x113
 z11
 x120
 x121
 x122
 x123
 z12
 x130
 x131
 x132
 x133
 z13
 x140
 x141
 x142
 x143
 z14
 x150
 x151
 x152
 x153
 z15
 x160
 x161
 x162
 x163
 z16
 x170
 x171
 x172
 x173
 z17
 x180
 x181
 x182
 x183
 z18
 x190
 x191
 x192
 x193
 z19
 x200
 x201
 x202
 x203
 z20
 x210
 x211
 x212
 x213
 z21
 x220
 x221
 x222
 x223
 z22
 x230
 x231
 x232
 x233
 z23
 x240
 x241
 x242
 x243
 z24
End